NAME : rbg132.2.tw.18524.tour
COMMENT : Length = 18524
COMMENT : Found by LKH [Keld Helsgaun] Sun Sep 10 01:17:37 2017
TYPE : TOUR
DIMENSION : 131
TOUR_SECTION
1
6
2
5
4
3
7
15
13
8
14
16
10
9
12
11
20
19
22
18
17
21
23
25
28
27
24
30
26
31
29
41
43
35
33
32
45
39
36
47
34
42
37
40
46
38
44
48
50
54
49
51
52
53
59
56
58
57
60
55
62
64
63
67
66
61
65
75
74
70
68
73
77
69
81
83
72
71
76
93
80
78
79
82
85
84
89
97
95
86
94
87
88
92
90
91
100
101
104
96
99
98
103
107
105
102
110
106
108
109
115
113
111
119
116
114
112
120
123
117
125
118
121
126
122
124
129
130
128
127
131
-1
EOF
